474,374
435,67
542,-21
875,265
737,51
709,415
655,419
829,862
653,415
618,469
921,406
909,332
317,670
681,136
937,489
977,452
1028,229
762,246
664,430
593,285
1194,240
716,358
471,406
504,59
660,385
963,794
639,672
766,433
390,195
